(declare-fun cmp.i.i_51_21 () (_ BitVec 1))
(declare-fun xor.i_51_19 () (_ BitVec 64))
(declare-fun i_51_17 () (_ BitVec 64))
(declare-fun i9_51_18 () (_ BitVec 64))
(declare-fun reg_51_7 () (_ BitVec 64))
(declare-fun reg_51_6 () (_ BitVec 64))
(declare-fun reg_51_16 () (_ BitVec 8))
(declare-fun reg_51_15 () (_ BitVec 32))
(declare-fun reg_51_14 () (_ BitVec 32))
(declare-fun reg_51_13 () (_ BitVec 32))
(declare-fun reg_51_12 () (_ BitVec 32))
(declare-fun reg_51_11 () (_ BitVec 32))
(declare-fun reg_51_10 () (_ BitVec 32))
(declare-fun reg_51_9 () (_ BitVec 32))
(declare-fun reg_51_8 () (_ BitVec 32))
(declare-fun reg_51_5 () (_ BitVec 64))
(declare-fun reg_51_4 () (_ BitVec 64))
(declare-fun reg_51_3 () (_ BitVec 64))
(declare-fun reg_51_2 () (_ BitVec 64))
(declare-fun reg_51_1 () (_ BitVec 32))
(declare-fun reg_51_0 () (_ BitVec 32))
(declare-fun add.i.i_51_67 () (_ BitVec 32))
(declare-fun i2_51_69 () (_ BitVec 32))
(declare-fun sub28.i.i.i_51_64 () (_ BitVec 32))
(declare-fun num.5.i.i.i_51_66 () (_ BitVec 32))
(declare-fun num.4.i.i.i_51_61 () (_ BitVec 32))
(declare-fun tobool26.not18.i.i.i_51_63 () (_ BitVec 1))
(declare-fun word.addr.4.i.i.i_51_60 () (_ BitVec 64))
(declare-fun num.3.i.i.i_51_53 () (_ BitVec 32))
(declare-fun sub22.i.i.i_51_57 () (_ BitVec 32))
(declare-fun tobool20.not.i.i.i_51_55 () (_ BitVec 1))
(declare-fun word.addr.3.i.i.i_51_52 () (_ BitVec 64))
(declare-fun shl23.i.i.i_51_59 () (_ BitVec 64))
(declare-fun num.2.i.i.i_51_45 () (_ BitVec 32))
(declare-fun sub16.i.i.i_51_49 () (_ BitVec 32))
(declare-fun tobool14.not.i.i.i_51_47 () (_ BitVec 1))
(declare-fun word.addr.2.i.i.i_51_44 () (_ BitVec 64))
(declare-fun shl17.i.i.i_51_51 () (_ BitVec 64))
(declare-fun num.1.i.i.i_51_37 () (_ BitVec 32))
(declare-fun sub10.i.i.i_51_41 () (_ BitVec 32))
(declare-fun tobool8.not.i.i.i_51_39 () (_ BitVec 1))
(declare-fun word.addr.1.i.i.i_51_36 () (_ BitVec 64))
(declare-fun shl11.i.i.i_51_43 () (_ BitVec 64))
(declare-fun spec.select17.i.i.i_51_29 () (_ BitVec 32))
(declare-fun sub4.i.i.i_51_33 () (_ BitVec 32))
(declare-fun tobool2.not.i.i.i_51_31 () (_ BitVec 1))
(declare-fun spec.select.i.i.i_51_26 () (_ BitVec 64))
(declare-fun shl5.i.i.i_51_35 () (_ BitVec 64))
(declare-fun tobool.not.i.i.i_51_23 () (_ BitVec 1))
(declare-fun shl.i.i.i_51_25 () (_ BitVec 64))
(declare-fun reg_51_185 () (_ BitVec 8))
(declare-fun reg_51_184 () (_ BitVec 32))
(declare-fun reg_51_183 () (_ BitVec 32))
(declare-fun reg_51_182 () (_ BitVec 32))
(declare-fun reg_51_181 () (_ BitVec 32))
(declare-fun reg_51_180 () (_ BitVec 32))
(declare-fun reg_51_179 () (_ BitVec 32))
(declare-fun reg_51_178 () (_ BitVec 32))
(declare-fun reg_51_177 () (_ BitVec 32))
(declare-fun reg_51_176 () (_ BitVec 64))
(declare-fun reg_51_175 () (_ BitVec 64))
(declare-fun reg_51_174 () (_ BitVec 64))
(declare-fun reg_51_173 () (_ BitVec 64))
(declare-fun reg_51_172 () (_ BitVec 64))
(declare-fun and.i57_51_168 () (_ BitVec 64))
(declare-fun reg_51_171 () (_ BitVec 64))
(declare-fun or.i55_51_164 () (_ BitVec 64))
(declare-fun reg_51_170 () (_ BitVec 32))
(declare-fun reg_51_169 () (_ BitVec 32))
(declare-fun cmp.i.i5_51_80 () (_ BitVec 1))
(declare-fun tnum_range.exit_tnum_range.exit46_51_125 () Bool)
(declare-fun if.end.i.i34_tnum_range.exit46_51_124 () Bool)
(declare-fun not.i56_51_167 () (_ BitVec 64))
(declare-fun or3.i_51_165 () (_ BitVec 64))
(declare-fun shr5.i.i_51_163 () (_ BitVec 64))
(declare-fun and.i48_51_156 () (_ BitVec 64))
(declare-fun shr.i.i_51_161 () (_ BitVec 64))
(declare-fun and4.i50_51_159 () (_ BitVec 64))
(declare-fun and.i1_51_138 () (_ BitVec 64))
(declare-fun and4.i_51_147 () (_ BitVec 64))
(declare-fun not.i49_51_158 () (_ BitVec 64))
(declare-fun or.i47_51_155 () (_ BitVec 64))
(declare-fun sub.i40_51_153 () (_ BitVec 64))
(declare-fun and6.i.i_51_140 () (_ BitVec 64))
(declare-fun and.i.i_51_149 () (_ BitVec 64))
(declare-fun and.i41_51_154 () (_ BitVec 64))
(declare-fun conv_51_128 () (_ BitVec 64))
(declare-fun notmask.i39_51_151 () (_ BitVec 64))
(declare-fun retval.0.i.i35_51_126 () (_ BitVec 64))
(declare-fun not.i_51_146 () (_ BitVec 64))
(declare-fun or.i_51_144 () (_ BitVec 64))
(declare-fun i13_51_74 () (_ BitVec 64))
(declare-fun retval.sroa.0.0.i_51_143 () (_ BitVec 64))
(declare-fun and.i_51_141 () (_ BitVec 64))
(declare-fun cmp.i_51_130 () (_ BitVec 1))
(declare-fun notmask.i_51_133 () (_ BitVec 64))
(declare-fun i15_51_75 () (_ BitVec 64))
(declare-fun retval.sroa.3.0.i_51_137 () (_ BitVec 64))
(declare-fun sub.i_51_135 () (_ BitVec 64))
(declare-fun sh_prom.i_51_131 () (_ BitVec 64))
(declare-fun retval.0.i.i_51_72 () (_ BitVec 32))
(declare-fun i20_51_76 () (_ BitVec 32))
(declare-fun i4_51_123 () (_ BitVec 64))
(declare-fun entry_tnum_range.exit_51_71 () Bool)
(declare-fun if.end.i.i_tnum_range.exit_51_70 () Bool)
(declare-fun xor.i41_51_78 () (_ BitVec 32))
(declare-fun i21_51_77 () (_ BitVec 32))
(declare-fun i3_51_122 () (_ BitVec 32))
(declare-fun add.i.i33_51_120 () (_ BitVec 32))
(declare-fun sub28.i.i.i31_51_117 () (_ BitVec 32))
(declare-fun num.5.i.i.i32_51_119 () (_ BitVec 32))
(declare-fun num.4.i.i.i29_51_114 () (_ BitVec 32))
(declare-fun tobool26.not18.i.i.i30_51_116 () (_ BitVec 1))
(declare-fun word.addr.4.i.i.i28_51_113 () (_ BitVec 64))
(declare-fun num.3.i.i.i24_51_106 () (_ BitVec 32))
(declare-fun sub22.i.i.i26_51_110 () (_ BitVec 32))
(declare-fun tobool20.not.i.i.i25_51_108 () (_ BitVec 1))
(declare-fun word.addr.3.i.i.i23_51_105 () (_ BitVec 64))
(declare-fun shl23.i.i.i27_51_112 () (_ BitVec 64))
(declare-fun num.2.i.i.i19_51_98 () (_ BitVec 32))
(declare-fun sub16.i.i.i21_51_102 () (_ BitVec 32))
(declare-fun tobool14.not.i.i.i20_51_100 () (_ BitVec 1))
(declare-fun word.addr.2.i.i.i18_51_97 () (_ BitVec 64))
(declare-fun shl17.i.i.i22_51_104 () (_ BitVec 64))
(declare-fun num.1.i.i.i14_51_90 () (_ BitVec 32))
(declare-fun sub10.i.i.i16_51_94 () (_ BitVec 32))
(declare-fun tobool8.not.i.i.i15_51_92 () (_ BitVec 1))
(declare-fun word.addr.1.i.i.i13_51_87 () (_ BitVec 64))
(declare-fun shl11.i.i.i17_51_96 () (_ BitVec 64))
(declare-fun tobool2.not.i.i.i10_51_83 () (_ BitVec 1))
(declare-fun word.addr.1.i.i.i13.v_51_86 () (_ BitVec 64))
(declare-fun xor.i4_51_81 () (_ BitVec 64))
(assert (let ((a!1 (and (= cmp.i.i5_51_80 #b0)
                (or (= cmp.i.i_51_21 #b0) (= cmp.i.i_51_21 #b1))))
      (a!3 (=> (or (= cmp.i.i_51_21 #b0) (= cmp.i.i_51_21 #b1))
               (and (=> if.end.i.i_tnum_range.exit_51_70
                        (= retval.0.i.i_51_72 i2_51_69))
                    (=> entry_tnum_range.exit_51_71
                        (= retval.0.i.i_51_72 #x00000000))
                    (= reg_51_2 i13_51_74)
                    (= reg_51_3 i15_51_75)
                    (= reg_51_10 i20_51_76)
                    (= reg_51_11 i21_51_77)
                    (= xor.i41_51_78 (bvxor i21_51_77 i20_51_76))
                    (ite (= xor.i41_51_78 #x00000000)
                         (= cmp.i.i5_51_80 #b1)
                         (= cmp.i.i5_51_80 #b0))
                    (= if.end.i.i_tnum_range.exit_51_70 (= cmp.i.i_51_21 #b0))
                    (= entry_tnum_range.exit_51_71 (= cmp.i.i_51_21 #b1)))))
      (a!4 (and (= cmp.i.i5_51_80 #b1)
                (or (= cmp.i.i_51_21 #b0) (= cmp.i.i_51_21 #b1))))
      (a!6 (=> (= cmp.i.i_51_21 #b0)
               (and (ite (bvult xor.i_51_19 #x0000000100000000)
                         (= tobool.not.i.i.i_51_23 #b1)
                         (= tobool.not.i.i.i_51_23 #b0))
                    (= shl.i.i.i_51_25 (bvshl xor.i_51_19 #x0000000000000020))
                    (ite (= tobool.not.i.i.i_51_23 #b1)
                         (= spec.select.i.i.i_51_26 shl.i.i.i_51_25)
                         (= spec.select.i.i.i_51_26 xor.i_51_19))
                    (ite (= tobool.not.i.i.i_51_23 #b1)
                         (= spec.select17.i.i.i_51_29 #x0000001f)
                         (= spec.select17.i.i.i_51_29 #x0000003f))
                    (ite (bvult spec.select.i.i.i_51_26 #x0001000000000000)
                         (= tobool2.not.i.i.i_51_31 #b1)
                         (= tobool2.not.i.i.i_51_31 #b0))
                    (= sub4.i.i.i_51_33
                       (bvadd spec.select17.i.i.i_51_29 #xfffffff0))
                    (= shl5.i.i.i_51_35
                       (bvshl spec.select.i.i.i_51_26 #x0000000000000010))
                    (ite (= tobool2.not.i.i.i_51_31 #b1)
                         (= word.addr.1.i.i.i_51_36 shl5.i.i.i_51_35)
                         (= word.addr.1.i.i.i_51_36 spec.select.i.i.i_51_26))
                    (ite (= tobool2.not.i.i.i_51_31 #b1)
                         (= num.1.i.i.i_51_37 sub4.i.i.i_51_33)
                         (= num.1.i.i.i_51_37 spec.select17.i.i.i_51_29))
                    (ite (bvult word.addr.1.i.i.i_51_36 #x0100000000000000)
                         (= tobool8.not.i.i.i_51_39 #b1)
                         (= tobool8.not.i.i.i_51_39 #b0))
                    (= sub10.i.i.i_51_41 (bvadd num.1.i.i.i_51_37 #xfffffff8))
                    (= shl11.i.i.i_51_43
                       (bvshl word.addr.1.i.i.i_51_36 #x0000000000000008))
                    (ite (= tobool8.not.i.i.i_51_39 #b1)
                         (= word.addr.2.i.i.i_51_44 shl11.i.i.i_51_43)
                         (= word.addr.2.i.i.i_51_44 word.addr.1.i.i.i_51_36))
                    (ite (= tobool8.not.i.i.i_51_39 #b1)
                         (= num.2.i.i.i_51_45 sub10.i.i.i_51_41)
                         (= num.2.i.i.i_51_45 num.1.i.i.i_51_37))
                    (ite (bvult word.addr.2.i.i.i_51_44 #x1000000000000000)
                         (= tobool14.not.i.i.i_51_47 #b1)
                         (= tobool14.not.i.i.i_51_47 #b0))
                    (= sub16.i.i.i_51_49 (bvadd num.2.i.i.i_51_45 #xfffffffc))
                    (= shl17.i.i.i_51_51
                       (bvshl word.addr.2.i.i.i_51_44 #x0000000000000004))
                    (ite (= tobool14.not.i.i.i_51_47 #b1)
                         (= word.addr.3.i.i.i_51_52 shl17.i.i.i_51_51)
                         (= word.addr.3.i.i.i_51_52 word.addr.2.i.i.i_51_44))
                    (ite (= tobool14.not.i.i.i_51_47 #b1)
                         (= num.3.i.i.i_51_53 sub16.i.i.i_51_49)
                         (= num.3.i.i.i_51_53 num.2.i.i.i_51_45))
                    (ite (bvult word.addr.3.i.i.i_51_52 #x4000000000000000)
                         (= tobool20.not.i.i.i_51_55 #b1)
                         (= tobool20.not.i.i.i_51_55 #b0))
                    (= sub22.i.i.i_51_57 (bvadd num.3.i.i.i_51_53 #x000000fe))
                    (= shl23.i.i.i_51_59
                       (bvshl word.addr.3.i.i.i_51_52 #x0000000000000002))
                    (ite (= tobool20.not.i.i.i_51_55 #b1)
                         (= word.addr.4.i.i.i_51_60 shl23.i.i.i_51_59)
                         (= word.addr.4.i.i.i_51_60 word.addr.3.i.i.i_51_52))
                    (ite (= tobool20.not.i.i.i_51_55 #b1)
                         (= num.4.i.i.i_51_61 sub22.i.i.i_51_57)
                         (= num.4.i.i.i_51_61 num.3.i.i.i_51_53))
                    (ite (bvsgt word.addr.4.i.i.i_51_60 #xffffffffffffffff)
                         (= tobool26.not18.i.i.i_51_63 #b1)
                         (= tobool26.not18.i.i.i_51_63 #b0))
                    (= sub28.i.i.i_51_64
                       ((_ sign_extend 31) tobool26.not18.i.i.i_51_63))
                    (= num.5.i.i.i_51_66 (bvadd num.4.i.i.i_51_61 #x00000001))
                    (= add.i.i_51_67
                       (bvadd num.5.i.i.i_51_66 sub28.i.i.i_51_64))
                    (= i2_51_69 (bvand add.i.i_51_67 #x000000ff))))))
(let ((a!2 (=> a!1
               (and (= xor.i4_51_81 ((_ zero_extend 32) xor.i41_51_78))
                    (ite (bvult xor.i41_51_78 #x00010000)
                         (= tobool2.not.i.i.i10_51_83 #b1)
                         (= tobool2.not.i.i.i10_51_83 #b0))
                    (ite (= tobool2.not.i.i.i10_51_83 #b1)
                         (= word.addr.1.i.i.i13.v_51_86 #x0000000000000030)
                         (= word.addr.1.i.i.i13.v_51_86 #x0000000000000020))
                    (= word.addr.1.i.i.i13_51_87
                       (bvshl xor.i4_51_81 word.addr.1.i.i.i13.v_51_86))
                    (ite (= tobool2.not.i.i.i10_51_83 #b1)
                         (= num.1.i.i.i14_51_90 #x0000000f)
                         (= num.1.i.i.i14_51_90 #x0000001f))
                    (ite (bvult word.addr.1.i.i.i13_51_87 #x0100000000000000)
                         (= tobool8.not.i.i.i15_51_92 #b1)
                         (= tobool8.not.i.i.i15_51_92 #b0))
                    (= sub10.i.i.i16_51_94
                       (bvadd num.1.i.i.i14_51_90 #xfffffff8))
                    (= shl11.i.i.i17_51_96
                       (bvshl word.addr.1.i.i.i13_51_87 #x0000000000000008))
                    (ite (= tobool8.not.i.i.i15_51_92 #b1)
                         (= word.addr.2.i.i.i18_51_97 shl11.i.i.i17_51_96)
                         (= word.addr.2.i.i.i18_51_97 word.addr.1.i.i.i13_51_87))
                    (ite (= tobool8.not.i.i.i15_51_92 #b1)
                         (= num.2.i.i.i19_51_98 sub10.i.i.i16_51_94)
                         (= num.2.i.i.i19_51_98 num.1.i.i.i14_51_90))
                    (ite (bvult word.addr.2.i.i.i18_51_97 #x1000000000000000)
                         (= tobool14.not.i.i.i20_51_100 #b1)
                         (= tobool14.not.i.i.i20_51_100 #b0))
                    (= sub16.i.i.i21_51_102
                       (bvadd num.2.i.i.i19_51_98 #xfffffffc))
                    (= shl17.i.i.i22_51_104
                       (bvshl word.addr.2.i.i.i18_51_97 #x0000000000000004))
                    (ite (= tobool14.not.i.i.i20_51_100 #b1)
                         (= word.addr.3.i.i.i23_51_105 shl17.i.i.i22_51_104)
                         (= word.addr.3.i.i.i23_51_105
                            word.addr.2.i.i.i18_51_97))
                    (ite (= tobool14.not.i.i.i20_51_100 #b1)
                         (= num.3.i.i.i24_51_106 sub16.i.i.i21_51_102)
                         (= num.3.i.i.i24_51_106 num.2.i.i.i19_51_98))
                    (ite (bvult word.addr.3.i.i.i23_51_105 #x4000000000000000)
                         (= tobool20.not.i.i.i25_51_108 #b1)
                         (= tobool20.not.i.i.i25_51_108 #b0))
                    (= sub22.i.i.i26_51_110
                       (bvadd num.3.i.i.i24_51_106 #x000000fe))
                    (= shl23.i.i.i27_51_112
                       (bvshl word.addr.3.i.i.i23_51_105 #x0000000000000002))
                    (ite (= tobool20.not.i.i.i25_51_108 #b1)
                         (= word.addr.4.i.i.i28_51_113 shl23.i.i.i27_51_112)
                         (= word.addr.4.i.i.i28_51_113
                            word.addr.3.i.i.i23_51_105))
                    (ite (= tobool20.not.i.i.i25_51_108 #b1)
                         (= num.4.i.i.i29_51_114 sub22.i.i.i26_51_110)
                         (= num.4.i.i.i29_51_114 num.3.i.i.i24_51_106))
                    (ite (bvsgt word.addr.4.i.i.i28_51_113 #xffffffffffffffff)
                         (= tobool26.not18.i.i.i30_51_116 #b1)
                         (= tobool26.not18.i.i.i30_51_116 #b0))
                    (= sub28.i.i.i31_51_117
                       ((_ sign_extend 31) tobool26.not18.i.i.i30_51_116))
                    (= num.5.i.i.i32_51_119
                       (bvadd num.4.i.i.i29_51_114 #x00000001))
                    (= add.i.i33_51_120
                       (bvadd num.5.i.i.i32_51_119 sub28.i.i.i31_51_117))
                    (= i3_51_122 (bvand add.i.i33_51_120 #x000000ff))
                    (= i4_51_123 ((_ zero_extend 32) i3_51_122)))))
      (a!5 (=> (or a!1 a!4)
               (and (=> if.end.i.i34_tnum_range.exit46_51_124
                        (= retval.0.i.i35_51_126 i4_51_123))
                    (=> tnum_range.exit_tnum_range.exit46_51_125
                        (= retval.0.i.i35_51_126 #x0000000000000000))
                    (= conv_51_128 ((_ zero_extend 32) i20_51_76))
                    (ite (bvugt retval.0.i.i_51_72 #x0000003f)
                         (= cmp.i_51_130 #b1)
                         (= cmp.i_51_130 #b0))
                    (= sh_prom.i_51_131 ((_ zero_extend 32) retval.0.i.i_51_72))
                    (= notmask.i_51_133
                       (bvshl #xffffffffffffffff sh_prom.i_51_131))
                    (= sub.i_51_135 (bvxor notmask.i_51_133 #xffffffffffffffff))
                    (ite (= cmp.i_51_130 #b1)
                         (= retval.sroa.3.0.i_51_137 #xffffffffffffffff)
                         (= retval.sroa.3.0.i_51_137 sub.i_51_135))
                    (= and.i1_51_138 (bvand retval.sroa.3.0.i_51_137 i15_51_75))
                    (= and6.i.i_51_140 (bvand and.i1_51_138 #x00000000ffffffff))
                    (= and.i_51_141 (bvand notmask.i_51_133 i_51_17))
                    (ite (= cmp.i_51_130 #b1)
                         (= retval.sroa.0.0.i_51_143 #x0000000000000000)
                         (= retval.sroa.0.0.i_51_143 and.i_51_141))
                    (= or.i_51_144 (bvor retval.sroa.0.0.i_51_143 i13_51_74))
                    (= not.i_51_146 (bvxor and.i1_51_138 #xffffffffffffffff))
                    (= and4.i_51_147 (bvand or.i_51_144 not.i_51_146))
                    (= and.i.i_51_149 (bvand and4.i_51_147 #x00000000ffffffff))
                    (= notmask.i39_51_151
                       (bvshl #xffffffffffffffff retval.0.i.i35_51_126))
                    (= sub.i40_51_153
                       (bvxor notmask.i39_51_151 #xffffffffffffffff))
                    (= and.i41_51_154 (bvand notmask.i39_51_151 conv_51_128))
                    (= or.i47_51_155 (bvor and.i41_51_154 and.i.i_51_149))
                    (= and.i48_51_156 (bvand and6.i.i_51_140 sub.i40_51_153))
                    (= not.i49_51_158 (bvxor and.i48_51_156 #xffffffffffffffff))
                    (= and4.i50_51_159 (bvand or.i47_51_155 not.i49_51_158))
                    (= shr.i.i_51_161 (bvand and4.i_51_147 #xffffffff00000000))
                    (= shr5.i.i_51_163 (bvand and.i1_51_138 #xffffffff00000000))
                    (= or.i55_51_164 (bvor and4.i50_51_159 shr.i.i_51_161))
                    (= or3.i_51_165 (bvor and.i48_51_156 shr5.i.i_51_163))
                    (= not.i56_51_167 (bvxor or.i55_51_164 #xffffffffffffffff))
                    (= and.i57_51_168 (bvand or3.i_51_165 not.i56_51_167))
                    (= if.end.i.i34_tnum_range.exit46_51_124 a!1)
                    (= tnum_range.exit_tnum_range.exit46_51_125 a!4)
                    (= reg_51_0 reg_51_169)
                    (= reg_51_1 reg_51_170)
                    (= or.i55_51_164 reg_51_171)
                    (= and.i57_51_168 reg_51_172)
                    (= reg_51_4 reg_51_173)
                    (= reg_51_5 reg_51_174)
                    (= reg_51_6 reg_51_175)
                    (= reg_51_7 reg_51_176)
                    (= reg_51_8 reg_51_177)
                    (= reg_51_9 reg_51_178)
                    (= reg_51_10 reg_51_179)
                    (= reg_51_11 reg_51_180)
                    (= reg_51_12 reg_51_181)
                    (= reg_51_13 reg_51_182)
                    (= reg_51_14 reg_51_183)
                    (= reg_51_15 reg_51_184)
                    (= reg_51_16 reg_51_185)))))
  (and a!2
       a!3
       a!5
       a!6
       (= reg_51_0 reg_51_0)
       (= reg_51_1 reg_51_1)
       (= reg_51_2 reg_51_2)
       (= reg_51_3 reg_51_3)
       (= reg_51_4 reg_51_4)
       (= reg_51_5 reg_51_5)
       (= reg_51_6 reg_51_6)
       (= reg_51_7 reg_51_7)
       (= reg_51_8 reg_51_8)
       (= reg_51_9 reg_51_9)
       (= reg_51_10 reg_51_10)
       (= reg_51_11 reg_51_11)
       (= reg_51_12 reg_51_12)
       (= reg_51_13 reg_51_13)
       (= reg_51_14 reg_51_14)
       (= reg_51_15 reg_51_15)
       (= reg_51_16 reg_51_16)
       (= reg_51_6 i_51_17)
       (= reg_51_7 i9_51_18)
       (= xor.i_51_19 (bvxor i9_51_18 i_51_17))
       (ite (= xor.i_51_19 #x0000000000000000)
            (= cmp.i.i_51_21 #b1)
            (= cmp.i.i_51_21 #b0))))))

;{"reg":["reg_51_0","reg_51_1",[""],["reg_51_2","reg_51_3"],"reg_51_4","reg_51_5","reg_51_6","reg_51_7","reg_51_8","reg_51_9","reg_51_10","reg_51_11","reg_51_12","reg_51_13","reg_51_14","reg_51_15","reg_51_16"]}
;{"reg":["reg_51_169","reg_51_170",[""],["reg_51_171","reg_51_172"],"reg_51_173","reg_51_174","reg_51_175","reg_51_176","reg_51_177","reg_51_178","reg_51_179","reg_51_180","reg_51_181","reg_51_182","reg_51_183","reg_51_184","reg_51_185"]}
